p cnf 16 36
1 2 0
-1 -4 0
-1 -7 0
-1 -8 0
-1 -11 0
-1 -15 0
-4 -7 0
-4 -8 0
-4 -11 0
-4 -15 0
-7 -8 0
-7 -11 0
-7 -15 0
-8 -11 0
-8 -15 0
-11 -15 0
-3 -5 0
-3 -9 0
-3 -12 0
-3 -16 0
-5 -9 0
-5 -12 0
-5 -16 0
-9 -12 0
-9 -16 0
-12 -16 0
-2 -6 0
-2 -10 0
-2 -13 0
-2 -14 0
-6 -10 0
-6 -13 0
-6 -14 0
-10 -13 0
-10 -14 0
-13 -14 0
